n= 20; m= 6;

44	32	43	30	92	84	72	56	38	79	83	85	97	59	85	76	75	32	35	85
92	39	99	47	20	55	32	66	85	81	46	79	42	59	57	44	89	54	34	87
48	6	34	57	12	19	99	27	87	32	69	20	29	51	78	32	40	14	11	46
51	66	75	72	65	78	67	62	80	77	64	55	65	78	46	60	57	53	49	40
64	66	53	49	67	61	90	64	84	78	25	53	65	71	63	49	91	62	63	56
48	6	34	57	12	19	99	27	87	32	69	20	29	51	78	32	40	14	11	46


